50
1000
300
283
280
259
259
258
257
254
250
248
246
244
242
239
237
236
225
222
212
206
205
205
203
201
193
190
188
185
185
185
182
179
178
174
174
161
157
153
150
141
141
133
124
123
122
121
117
110
106
103
